1
1000
136
72 3
73 3
74 4
75 2
76 6
77 3
78 1
79 4
80 3
81 2
82 4
83 3
84 3
85 5
86 1
87 3
88 9
89 5
90 2
91 10
92 3
93 2
94 4
95 6
96 1
97 1
98 4
99 4
100 4
101 4
102 4
103 3
104 2
105 1
106 7
107 3
108 5
109 4
110 6
111 4
112 4
113 4
114 3
115 4
116 1
117 6
118 5
119 3
120 3
121 2
122 2
123 2
124 5
125 5
126 2
127 2
128 5
129 8
130 7
131 3
132 6
133 1
134 1
135 1
136 5
137 3
138 3
139 4
140 2
141 7
142 1
143 3
144 4
145 5
146 4
147 3
148 2
149 5
150 3
151 5
152 1
153 3
154 6
155 3
156 4
157 3
158 3
159 7
160 5
161 3
162 3
163 3
165 3
166 4
167 2
168 6
170 3
171 3
172 4
173 7
174 2
175 3
176 5
177 3
178 3
179 7
180 3
181 2
182 2
183 9
184 1
185 4
186 2
187 1
188 6
189 3
190 2
191 2
192 4
194 1
195 4
196 4
197 4
198 2
199 7
200 4
201 5
202 5
203 4
204 6
205 4
206 6
207 1
208 3
209 6
210 2
